p cnf 763 1810
1 0
2 0
3 0
4 0
5 0
6 0
7 0
8 0
9 0
10 0
-11 0
-12 0
-13 0
-14 0
-15 0
-16 0
-17 0
-18 0
-19 0
-20 0
-21 22 0
23 22 0
21 -23 -22 0
1 -22 0
-1 22 0
-24 25 0
26 25 0
24 -26 -25 0
27 -25 0
-27 25 0
-28 29 0
30 29 0
28 -30 -29 0
31 -29 0
-31 29 0
-32 33 0
34 33 0
32 -34 -33 0
35 -33 0
-35 33 0
-36 37 0
38 37 0
36 -38 -37 0
39 -37 0
-39 37 0
-40 41 0
42 41 0
40 -42 -41 0
43 -41 0
-43 41 0
-44 45 0
46 45 0
44 -46 -45 0
47 -45 0
-47 45 0
-48 49 0
50 49 0
48 -50 -49 0
2 -49 0
-2 49 0
-51 52 0
53 52 0
51 -53 -52 0
54 -52 0
-54 52 0
-55 56 0
57 56 0
55 -57 -56 0
58 -56 0
-58 56 0
-59 60 0
61 60 0
59 -61 -60 0
62 -60 0
-62 60 0
-63 64 0
65 64 0
63 -65 -64 0
66 -64 0
-66 64 0
-67 68 0
69 68 0
67 -69 -68 0
70 -68 0
-70 68 0
-71 72 0
73 72 0
71 -73 -72 0
3 -72 0
-3 72 0
-74 75 0
76 75 0
74 -76 -75 0
77 -75 0
-77 75 0
-78 79 0
80 79 0
78 -80 -79 0
81 -79 0
-81 79 0
-82 83 0
84 83 0
82 -84 -83 0
85 -83 0
-85 83 0
-86 87 0
88 87 0
86 -88 -87 0
89 -87 0
-89 87 0
-90 91 0
92 91 0
90 -92 -91 0
93 -91 0
-93 91 0
-94 95 0
96 95 0
94 -96 -95 0
4 -95 0
-4 95 0
-97 98 0
99 98 0
97 -99 -98 0
100 -98 0
-100 98 0
-101 102 0
103 102 0
101 -103 -102 0
104 -102 0
-104 102 0
-105 106 0
107 106 0
105 -107 -106 0
108 -106 0
-108 106 0
-109 110 0
111 110 0
109 -111 -110 0
5 -110 0
-5 110 0
-112 113 0
114 113 0
112 -114 -113 0
115 -113 0
-115 113 0
-116 117 0
118 117 0
116 -118 -117 0
119 -117 0
-119 117 0
-120 121 0
122 121 0
120 -122 -121 0
6 -121 0
-6 121 0
-123 124 0
125 124 0
123 -125 -124 0
7 -124 0
-7 124 0
-126 127 0
128 127 0
126 -128 -127 0
129 -127 0
-129 127 0
-130 131 0
132 131 0
130 -132 -131 0
133 -131 0
-133 131 0
-134 135 0
136 135 0
134 -136 -135 0
137 -135 0
-137 135 0
-138 139 0
140 139 0
138 -140 -139 0
141 -139 0
-141 139 0
-142 143 0
144 143 0
142 -144 -143 0
8 -143 0
-8 143 0
-145 146 0
147 146 0
145 -147 -146 0
148 -146 0
-148 146 0
-149 150 0
151 150 0
149 -151 -150 0
152 -150 0
-152 150 0
-153 154 0
155 154 0
153 -155 -154 0
156 -154 0
-156 154 0
-157 158 0
159 158 0
157 -159 -158 0
9 -158 0
-9 158 0
-160 161 0
162 161 0
160 -162 -161 0
163 -161 0
-163 161 0
-164 165 0
166 165 0
164 -166 -165 0
167 -165 0
-167 165 0
-168 169 0
170 169 0
168 -170 -169 0
171 -169 0
-171 169 0
-172 173 0
174 173 0
172 -174 -173 0
175 -173 0
-175 173 0
-176 177 0
178 177 0
176 -178 -177 0
179 -177 0
-179 177 0
-180 181 0
182 181 0
180 -182 -181 0
10 -181 0
-10 181 0
-183 184 0
185 184 0
183 -185 -184 0
186 -184 0
-186 184 0
-187 188 0
189 188 0
187 -189 -188 0
190 -188 0
-190 188 0
-191 192 0
193 192 0
191 -193 -192 0
194 -192 0
-194 192 0
-195 196 0
197 196 0
195 -197 -196 0
198 -196 0
-198 196 0
-199 200 0
201 200 0
199 -201 -200 0
11 -200 0
-11 200 0
-202 203 0
204 203 0
202 -204 -203 0
205 -203 0
-205 203 0
-206 207 0
208 207 0
206 -208 -207 0
209 -207 0
-209 207 0
-210 211 0
212 211 0
210 -212 -211 0
213 -211 0
-213 211 0
-214 215 0
216 215 0
214 -216 -215 0
217 -215 0
-217 215 0
-218 219 0
220 219 0
218 -220 -219 0
221 -219 0
-221 219 0
-222 223 0
224 223 0
222 -224 -223 0
12 -223 0
-12 223 0
-225 226 0
227 226 0
225 -227 -226 0
228 -226 0
-228 226 0
-229 230 0
231 230 0
229 -231 -230 0
232 -230 0
-232 230 0
-233 234 0
235 234 0
233 -235 -234 0
236 -234 0
-236 234 0
-237 238 0
239 238 0
237 -239 -238 0
240 -238 0
-240 238 0
-241 242 0
243 242 0
241 -243 -242 0
244 -242 0
-244 242 0
-245 246 0
247 246 0
245 -247 -246 0
13 -246 0
-13 246 0
-248 249 0
250 249 0
248 -250 -249 0
251 -249 0
-251 249 0
-252 253 0
254 253 0
252 -254 -253 0
255 -253 0
-255 253 0
-256 257 0
258 257 0
256 -258 -257 0
259 -257 0
-259 257 0
-260 261 0
262 261 0
260 -262 -261 0
263 -261 0
-263 261 0
-264 265 0
266 265 0
264 -266 -265 0
267 -265 0
-267 265 0
-268 269 0
270 269 0
268 -270 -269 0
271 -269 0
-271 269 0
-272 273 0
274 273 0
272 -274 -273 0
14 -273 0
-14 273 0
-275 276 0
277 276 0
275 -277 -276 0
278 -276 0
-278 276 0
-279 280 0
281 280 0
279 -281 -280 0
282 -280 0
-282 280 0
-283 284 0
285 284 0
283 -285 -284 0
286 -284 0
-286 284 0
-287 288 0
289 288 0
287 -289 -288 0
290 -288 0
-290 288 0
-291 292 0
293 292 0
291 -293 -292 0
294 -292 0
-294 292 0
-295 296 0
297 296 0
295 -297 -296 0
298 -296 0
-298 296 0
-299 300 0
301 300 0
299 -301 -300 0
15 -300 0
-15 300 0
-302 303 0
304 303 0
302 -304 -303 0
305 -303 0
-305 303 0
-306 307 0
308 307 0
306 -308 -307 0
309 -307 0
-309 307 0
-310 311 0
312 311 0
310 -312 -311 0
313 -311 0
-313 311 0
-314 315 0
316 315 0
314 -316 -315 0
16 -315 0
-16 315 0
-317 318 0
319 318 0
317 -319 -318 0
320 -318 0
-320 318 0
-321 322 0
323 322 0
321 -323 -322 0
324 -322 0
-324 322 0
-325 326 0
327 326 0
325 -327 -326 0
328 -326 0
-328 326 0
-329 330 0
331 330 0
329 -331 -330 0
332 -330 0
-332 330 0
-333 334 0
335 334 0
333 -335 -334 0
336 -334 0
-336 334 0
-337 338 0
339 338 0
337 -339 -338 0
17 -338 0
-17 338 0
-340 341 0
342 341 0
340 -342 -341 0
343 -341 0
-343 341 0
-344 345 0
346 345 0
344 -346 -345 0
347 -345 0
-347 345 0
-348 349 0
350 349 0
348 -350 -349 0
351 -349 0
-351 349 0
-352 353 0
354 353 0
352 -354 -353 0
355 -353 0
-355 353 0
-356 357 0
358 357 0
356 -358 -357 0
359 -357 0
-359 357 0
-360 361 0
362 361 0
360 -362 -361 0
363 -361 0
-363 361 0
-364 365 0
366 365 0
364 -366 -365 0
18 -365 0
-18 365 0
-367 368 0
369 368 0
367 -369 -368 0
370 -368 0
-370 368 0
-371 372 0
373 372 0
371 -373 -372 0
374 -372 0
-374 372 0
-375 376 0
377 376 0
375 -377 -376 0
378 -376 0
-378 376 0
-379 380 0
381 380 0
379 -381 -380 0
19 -380 0
-19 380 0
-382 383 0
384 383 0
382 -384 -383 0
385 -383 0
-385 383 0
-386 387 0
388 387 0
386 -388 -387 0
389 -387 0
-389 387 0
-390 391 0
392 391 0
390 -392 -391 0
393 -391 0
-393 391 0
-394 395 0
396 395 0
394 -396 -395 0
397 -395 0
-397 395 0
-398 399 0
400 399 0
398 -400 -399 0
401 -399 0
-401 399 0
-402 403 0
404 403 0
402 -404 -403 0
20 -403 0
-20 403 0
-405 406 0
407 406 0
405 -407 -406 0
408 -406 0
-408 406 0
-409 410 0
411 410 0
409 -411 -410 0
412 -410 0
-412 410 0
-413 414 0
415 414 0
413 -415 -414 0
416 -414 0
-416 414 0
-417 418 0
419 418 0
417 -419 -418 0
420 -418 0
-420 418 0
-421 422 0
423 422 0
421 -423 -422 0
424 -422 0
-424 422 0
-425 426 0
427 426 0
425 -427 -426 0
428 -426 0
-428 426 0
-429 430 0
-24 -431 430 0
24 429 -430 0
429 431 -430 0
21 -430 0
-21 430 0
-432 433 0
-434 -28 433 0
432 434 -433 0
28 432 -433 0
24 -433 0
-24 433 0
-435 436 0
-437 -32 436 0
435 437 -436 0
32 435 -436 0
28 -436 0
-28 436 0
-438 439 0
-36 -440 439 0
36 438 -439 0
438 440 -439 0
32 -439 0
-32 439 0
-441 442 0
-40 -443 442 0
40 441 -442 0
441 443 -442 0
36 -442 0
-36 442 0
-444 445 0
-446 -44 445 0
444 446 -445 0
44 444 -445 0
40 -445 0
-40 445 0
-447 448 0
-449 -441 448 0
-449 -444 -443 448 0
449 447 -448 0
441 449 447 -448 0
444 449 447 -448 0
441 444 447 -448 0
443 449 447 -448 0
441 443 447 -448 0
44 -448 0
-44 448 0
-450 451 0
-51 -452 451 0
51 450 -451 0
450 452 -451 0
48 -451 0
-48 451 0
-453 454 0
-455 -55 454 0
453 455 -454 0
55 453 -454 0
51 -454 0
-51 454 0
-456 457 0
-458 -59 457 0
456 458 -457 0
59 456 -457 0
55 -457 0
-55 457 0
-459 460 0
-461 -63 460 0
459 461 -460 0
63 459 -460 0
59 -460 0
-59 460 0
-462 463 0
-67 -464 463 0
67 462 -463 0
462 464 -463 0
63 -463 0
-63 463 0
-465 466 0
-456 -467 466 0
-458 -459 -467 466 0
-468 0
456 458 465 -466 0
458 467 465 -466 0
456 458 459 465 -466 0
458 459 467 465 -466 0
456 458 467 465 -466 0
456 458 461 465 -466 0
458 461 467 465 -466 0
456 459 461 465 -466 0
459 461 467 465 -466 0
456 461 467 465 -466 0
461 467 465 -466 0
456 458 462 465 -466 0
458 462 467 465 -466 0
456 459 462 465 -466 0
459 462 467 465 -466 0
456 462 467 465 -466 0
462 467 465 -466 0
456 459 467 465 -466 0
459 467 465 -466 0
456 467 465 -466 0
467 465 -466 0
67 -466 0
-67 466 0
-469 470 0
-74 -471 470 0
74 469 -470 0
469 471 -470 0
71 -470 0
-71 470 0
-472 473 0
-474 -78 473 0
472 474 -473 0
78 472 -473 0
74 -473 0
-74 473 0
-475 476 0
-477 -82 476 0
475 477 -476 0
82 475 -476 0
78 -476 0
-78 476 0
-478 479 0
-86 -480 479 0
86 478 -479 0
478 480 -479 0
82 -479 0
-82 479 0
-481 482 0
-90 -483 482 0
90 481 -482 0
481 483 -482 0
86 -482 0
-86 482 0
-484 485 0
-475 -486 485 0
-477 -478 -486 485 0
-487 0
475 477 484 -485 0
477 486 484 -485 0
475 477 478 484 -485 0
477 478 486 484 -485 0
475 477 486 484 -485 0
475 477 481 484 -485 0
477 481 486 484 -485 0
475 478 481 484 -485 0
478 481 486 484 -485 0
475 481 486 484 -485 0
481 486 484 -485 0
475 477 480 484 -485 0
477 480 486 484 -485 0
475 478 480 484 -485 0
478 480 486 484 -485 0
475 480 486 484 -485 0
480 486 484 -485 0
475 478 486 484 -485 0
478 486 484 -485 0
475 486 484 -485 0
486 484 -485 0
90 -485 0
-90 485 0
-488 489 0
-97 -490 489 0
97 488 -489 0
488 490 -489 0
94 -489 0
-94 489 0
-491 492 0
-493 -101 492 0
491 493 -492 0
101 491 -492 0
97 -492 0
-97 492 0
-494 495 0
-496 -105 495 0
494 496 -495 0
105 494 -495 0
101 -495 0
-101 495 0
-497 498 0
-494 -499 498 0
494 497 -498 0
499 497 -498 0
105 -498 0
-105 498 0
-500 501 0
-112 -502 501 0
112 500 -501 0
500 502 -501 0
109 -501 0
-109 501 0
-503 504 0
-505 -116 504 0
503 505 -504 0
116 503 -504 0
112 -504 0
-112 504 0
116 -506 0
506 -116 0
120 -507 0
507 -120 0
-508 509 0
-510 -126 509 0
508 510 -509 0
126 508 -509 0
123 -509 0
-123 509 0
-511 512 0
-130 -513 512 0
130 511 -512 0
511 513 -512 0
126 -512 0
-126 512 0
-514 515 0
-134 -516 515 0
134 514 -515 0
514 516 -515 0
130 -515 0
-130 515 0
-517 518 0
-519 -138 518 0
517 519 -518 0
138 517 -518 0
134 -518 0
-134 518 0
-520 521 0
-522 -514 521 0
-522 -517 -516 521 0
522 520 -521 0
514 522 520 -521 0
517 522 520 -521 0
514 517 520 -521 0
516 522 520 -521 0
514 516 520 -521 0
138 -521 0
-138 521 0
-523 524 0
-525 -145 524 0
523 525 -524 0
145 523 -524 0
142 -524 0
-142 524 0
-526 527 0
-528 -149 527 0
526 528 -527 0
149 526 -527 0
145 -527 0
-145 527 0
-529 530 0
-153 -531 530 0
153 529 -530 0
529 531 -530 0
149 -530 0
-149 530 0
153 -532 0
532 -153 0
-533 534 0
-535 -160 534 0
533 535 -534 0
160 533 -534 0
157 -534 0
-157 534 0
-536 537 0
-538 -164 537 0
536 538 -537 0
164 536 -537 0
160 -537 0
-160 537 0
-539 540 0
-541 -168 540 0
539 541 -540 0
168 539 -540 0
164 -540 0
-164 540 0
-542 543 0
-172 -544 543 0
172 542 -543 0
542 544 -543 0
168 -543 0
-168 543 0
-545 546 0
-176 -547 546 0
176 545 -546 0
545 547 -546 0
172 -546 0
-172 546 0
-548 549 0
-539 -550 549 0
-541 -542 -550 549 0
-551 0
539 541 548 -549 0
541 550 548 -549 0
539 541 542 548 -549 0
541 542 550 548 -549 0
539 541 550 548 -549 0
539 541 545 548 -549 0
541 545 550 548 -549 0
539 542 545 548 -549 0
542 545 550 548 -549 0
539 545 550 548 -549 0
545 550 548 -549 0
539 541 544 548 -549 0
541 544 550 548 -549 0
539 542 544 548 -549 0
542 544 550 548 -549 0
539 544 550 548 -549 0
544 550 548 -549 0
539 542 550 548 -549 0
542 550 548 -549 0
539 550 548 -549 0
550 548 -549 0
176 -549 0
-176 549 0
-552 553 0
-183 -554 553 0
183 552 -553 0
552 554 -553 0
180 -553 0
-180 553 0
-555 556 0
-187 -557 556 0
187 555 -556 0
555 557 -556 0
183 -556 0
-183 556 0
-558 559 0
-191 -560 559 0
191 558 -559 0
558 560 -559 0
187 -559 0
-187 559 0
-561 562 0
-563 -195 562 0
561 563 -562 0
195 561 -562 0
191 -562 0
-191 562 0
-564 565 0
-566 -558 565 0
-566 -561 -560 565 0
566 564 -565 0
558 566 564 -565 0
561 566 564 -565 0
558 561 564 -565 0
560 566 564 -565 0
558 560 564 -565 0
195 -565 0
-195 565 0
-567 568 0
-202 -569 568 0
202 567 -568 0
567 569 -568 0
199 -568 0
-199 568 0
-570 571 0
-572 -206 571 0
570 572 -571 0
206 570 -571 0
202 -571 0
-202 571 0
-573 574 0
-210 -575 574 0
210 573 -574 0
573 575 -574 0
206 -574 0
-206 574 0
-576 577 0
-214 -578 577 0
214 576 -577 0
576 578 -577 0
210 -577 0
-210 577 0
-579 580 0
-581 -218 580 0
579 581 -580 0
218 579 -580 0
214 -580 0
-214 580 0
-582 583 0
-584 -576 583 0
-584 -579 -578 583 0
584 582 -583 0
576 584 582 -583 0
579 584 582 -583 0
576 579 582 -583 0
578 584 582 -583 0
576 578 582 -583 0
218 -583 0
-218 583 0
-585 586 0
-225 -587 586 0
225 585 -586 0
585 587 -586 0
222 -586 0
-222 586 0
-588 589 0
-590 -229 589 0
588 590 -589 0
229 588 -589 0
225 -589 0
-225 589 0
-591 592 0
-233 -593 592 0
233 591 -592 0
591 593 -592 0
229 -592 0
-229 592 0
-594 595 0
-596 -237 595 0
594 596 -595 0
237 594 -595 0
233 -595 0
-233 595 0
-597 598 0
-241 -599 598 0
241 597 -598 0
597 599 -598 0
237 -598 0
-237 598 0
-600 601 0
-591 -602 601 0
-594 -593 -602 601 0
-603 0
591 594 596 600 -601 0
594 596 602 600 -601 0
591 593 596 600 -601 0
593 596 602 600 -601 0
591 596 602 600 -601 0
596 602 600 -601 0
591 594 597 600 -601 0
594 597 602 600 -601 0
591 593 597 600 -601 0
593 597 602 600 -601 0
591 597 602 600 -601 0
597 602 600 -601 0
591 593 594 600 -601 0
593 594 602 600 -601 0
591 593 600 -601 0
593 602 600 -601 0
591 593 602 600 -601 0
591 594 602 600 -601 0
594 602 600 -601 0
591 602 600 -601 0
602 600 -601 0
241 -601 0
-241 601 0
-604 605 0
-606 -248 605 0
604 606 -605 0
248 604 -605 0
245 -605 0
-245 605 0
-607 608 0
-609 -252 608 0
607 609 -608 0
252 607 -608 0
248 -608 0
-248 608 0
-610 611 0
-612 -256 611 0
610 612 -611 0
256 610 -611 0
252 -611 0
-252 611 0
-613 614 0
-260 -615 614 0
260 613 -614 0
613 615 -614 0
256 -614 0
-256 614 0
-616 617 0
-618 -264 617 0
616 618 -617 0
264 616 -617 0
260 -617 0
-260 617 0
-619 620 0
-268 -621 620 0
268 619 -620 0
619 621 -620 0
264 -620 0
-264 620 0
-622 623 0
-616 -624 623 0
-618 -619 -624 623 0
616 618 622 -623 0
618 624 622 -623 0
616 619 622 -623 0
619 624 622 -623 0
616 624 622 -623 0
624 622 -623 0
268 -623 0
-268 623 0
-625 626 0
-275 -627 626 0
275 625 -626 0
625 627 -626 0
272 -626 0
-272 626 0
-628 629 0
-630 -279 629 0
628 630 -629 0
279 628 -629 0
275 -629 0
-275 629 0
-631 632 0
-633 -283 632 0
631 633 -632 0
283 631 -632 0
279 -632 0
-279 632 0
-634 635 0
-636 -287 635 0
634 636 -635 0
287 634 -635 0
283 -635 0
-283 635 0
-637 638 0
-291 -639 638 0
291 637 -638 0
637 639 -638 0
287 -638 0
-287 638 0
-640 641 0
-642 -295 641 0
640 642 -641 0
295 640 -641 0
291 -641 0
-291 641 0
-643 644 0
-634 -645 644 0
-636 -645 -637 644 0
-646 0
634 636 643 -644 0
636 645 643 -644 0
634 636 645 643 -644 0
634 636 637 643 -644 0
636 637 645 643 -644 0
634 636 639 643 -644 0
636 639 645 643 -644 0
634 639 645 643 -644 0
639 645 643 -644 0
634 637 639 643 -644 0
637 639 645 643 -644 0
634 645 643 -644 0
645 643 -644 0
634 637 645 643 -644 0
637 645 643 -644 0
634 636 640 643 -644 0
636 640 645 643 -644 0
634 640 645 643 -644 0
640 645 643 -644 0
634 637 640 643 -644 0
637 640 645 643 -644 0
295 -644 0
-295 644 0
-647 648 0
-649 -302 648 0
647 649 -648 0
302 647 -648 0
299 -648 0
-299 648 0
-650 651 0
-652 -306 651 0
650 652 -651 0
306 650 -651 0
302 -651 0
-302 651 0
-653 654 0
-310 -655 654 0
310 653 -654 0
653 655 -654 0
306 -654 0
-306 654 0
-656 657 0
-647 -658 657 0
-649 -658 -650 657 0
-659 0
647 649 656 -657 0
649 658 656 -657 0
647 649 658 656 -657 0
647 649 650 656 -657 0
649 650 658 656 -657 0
647 649 652 656 -657 0
649 652 658 656 -657 0
647 652 658 656 -657 0
652 658 656 -657 0
647 650 652 656 -657 0
650 652 658 656 -657 0
647 649 653 656 -657 0
649 653 658 656 -657 0
647 653 658 656 -657 0
653 658 656 -657 0
647 650 653 656 -657 0
650 653 658 656 -657 0
647 658 656 -657 0
658 656 -657 0
647 650 658 656 -657 0
650 658 656 -657 0
310 -657 0
-310 657 0
-660 661 0
-317 -662 661 0
317 660 -661 0
660 662 -661 0
314 -661 0
-314 661 0
-663 664 0
-665 -321 664 0
663 665 -664 0
321 663 -664 0
317 -664 0
-317 664 0
-666 667 0
-668 -325 667 0
666 668 -667 0
325 666 -667 0
321 -667 0
-321 667 0
-669 670 0
-329 -671 670 0
329 669 -670 0
669 671 -670 0
325 -670 0
-325 670 0
-672 673 0
-674 -333 673 0
672 674 -673 0
333 672 -673 0
329 -673 0
-329 673 0
-675 676 0
-669 -677 676 0
-672 -671 -677 676 0
669 672 675 -676 0
672 677 675 -676 0
669 671 675 -676 0
671 677 675 -676 0
669 677 675 -676 0
677 675 -676 0
333 -676 0
-333 676 0
-678 679 0
-680 -340 679 0
678 680 -679 0
340 678 -679 0
337 -679 0
-337 679 0
-681 682 0
-344 -683 682 0
344 681 -682 0
681 683 -682 0
340 -682 0
-340 682 0
-684 685 0
-686 -348 685 0
684 686 -685 0
348 684 -685 0
344 -685 0
-344 685 0
-687 688 0
-352 -689 688 0
352 687 -688 0
687 689 -688 0
348 -688 0
-348 688 0
-690 691 0
-356 -692 691 0
356 690 -691 0
690 692 -691 0
352 -691 0
-352 691 0
-693 694 0
-695 -360 694 0
693 695 -694 0
360 693 -694 0
356 -694 0
-356 694 0
-696 697 0
-698 -687 697 0
-698 -690 -689 697 0
-699 0
698 696 -697 0
687 698 696 -697 0
690 698 696 -697 0
687 690 698 696 -697 0
689 698 696 -697 0
687 689 698 696 -697 0
693 698 696 -697 0
687 693 698 696 -697 0
690 693 698 696 -697 0
687 690 693 696 -697 0
689 693 698 696 -697 0
687 689 693 696 -697 0
689 690 698 696 -697 0
687 689 690 696 -697 0
687 689 696 -697 0
692 698 696 -697 0
687 692 698 696 -697 0
690 692 698 696 -697 0
687 690 692 696 -697 0
689 692 698 696 -697 0
687 689 692 696 -697 0
360 -697 0
-360 697 0
-700 701 0
-702 -367 701 0
700 702 -701 0
367 700 -701 0
364 -701 0
-364 701 0
-703 704 0
-705 -371 704 0
703 705 -704 0
371 703 -704 0
367 -704 0
-367 704 0
-706 707 0
-708 -375 707 0
706 708 -707 0
375 706 -707 0
371 -707 0
-371 707 0
-709 710 0
-706 -711 710 0
706 709 -710 0
711 709 -710 0
375 -710 0
-375 710 0
-712 713 0
-382 -714 713 0
382 712 -713 0
712 714 -713 0
379 -713 0
-379 713 0
-715 716 0
-717 -386 716 0
715 717 -716 0
386 715 -716 0
382 -716 0
-382 716 0
-718 719 0
-390 -720 719 0
390 718 -719 0
718 720 -719 0
386 -719 0
-386 719 0
-721 722 0
-723 -394 722 0
721 723 -722 0
394 721 -722 0
390 -722 0
-390 722 0
-724 725 0
-398 -726 725 0
398 724 -725 0
724 726 -725 0
394 -725 0
-394 725 0
-727 728 0
-729 -721 728 0
-723 -729 -724 728 0
723 729 727 -728 0
721 723 727 -728 0
729 727 -728 0
721 729 727 -728 0
724 729 727 -728 0
721 724 727 -728 0
398 -728 0
-398 728 0
-730 731 0
-405 -732 731 0
405 730 -731 0
730 732 -731 0
402 -731 0
-402 731 0
-733 734 0
-409 -735 734 0
409 733 -734 0
733 735 -734 0
405 -734 0
-405 734 0
-736 737 0
-738 -413 737 0
736 738 -737 0
413 736 -737 0
409 -737 0
-409 737 0
-739 740 0
-417 -741 740 0
417 739 -740 0
739 741 -740 0
413 -740 0
-413 740 0
-742 743 0
-744 -421 743 0
742 744 -743 0
421 742 -743 0
417 -743 0
-417 743 0
-745 746 0
-425 -747 746 0
425 745 -746 0
745 747 -746 0
421 -746 0
-421 746 0
-748 749 0
-750 -742 749 0
-744 -750 -745 749 0
744 750 748 -749 0
742 744 748 -749 0
750 748 -749 0
742 750 748 -749 0
745 750 748 -749 0
742 745 748 -749 0
425 -749 0
-425 749 0
431 0
-434 0
-437 0
440 0
443 0
-446 0
-449 0
452 0
-455 0
-458 0
-461 0
464 0
467 0
471 0
-474 0
-477 0
480 0
483 0
486 0
490 0
-493 0
-496 0
499 0
502 0
-505 0
751 0
-752 0
-510 0
513 0
516 0
-519 0
-522 0
-525 0
-528 0
531 0
-753 0
-535 0
-538 0
-541 0
544 0
547 0
550 0
554 0
557 0
560 0
-563 0
-566 0
569 0
-572 0
575 0
578 0
-581 0
-584 0
587 0
-590 0
593 0
-596 0
599 0
602 0
-606 0
-609 0
-612 0
615 0
-618 0
621 0
624 0
627 0
-630 0
-633 0
-636 0
639 0
-642 0
645 0
-649 0
-652 0
655 0
658 0
662 0
-665 0
-668 0
671 0
-674 0
677 0
-680 0
683 0
-686 0
689 0
692 0
-695 0
-698 0
-702 0
-705 0
-708 0
711 0
714 0
-717 0
720 0
-723 0
726 0
-729 0
732 0
735 0
-738 0
741 0
-744 0
747 0
-750 0
-429 0
-432 0
-435 0
-438 0
-441 0
-444 0
-447 0
-450 0
-453 0
-456 0
-459 0
-462 0
-465 0
-469 0
-472 0
-475 0
-478 0
-481 0
-484 0
-488 0
-491 0
-494 0
-497 0
-500 0
-503 0
-506 0
-507 0
-508 0
-511 0
-514 0
-517 0
-520 0
-523 0
-526 0
-529 0
-532 0
-533 0
-536 0
-539 0
-542 0
-545 0
-548 0
-552 0
-555 0
-558 0
-561 0
-564 0
-567 0
-570 0
573 0
576 0
-579 0
582 0
-585 0
-588 0
591 0
-594 0
-597 0
600 0
-604 0
-607 0
-610 0
613 0
616 0
-619 0
-622 0
-625 0
-628 0
631 0
-634 0
637 0
640 0
-643 0
-647 0
650 0
-653 0
-656 0
-660 0
-663 0
666 0
669 0
-672 0
-675 0
-678 0
681 0
684 0
-687 0
-690 0
-693 0
-696 0
-700 0
703 0
706 0
709 0
-712 0
-715 0
718 0
-721 0
-724 0
-727 0
-730 0
-733 0
-736 0
739 0
742 0
745 0
-748 0
-754 -755 0
-754 23 0
-754 -26 0
-754 -30 0
-754 34 0
-754 38 0
-754 -42 0
-754 -46 0
-754 50 0
-754 -53 0
-754 -57 0
-754 -61 0
-754 65 0
-754 69 0
-754 73 0
-754 -76 0
-754 -80 0
84 -754 0
88 -754 0
-754 92 0
-754 96 0
-754 -99 0
-754 -103 0
-754 107 0
-754 111 0
-754 -114 0
-754 118 0
-754 -122 0
-754 -125 0
-754 128 0
-754 132 0
-754 -136 0
-754 -140 0
-754 -144 0
-754 -147 0
-754 151 0
-754 -155 0
-754 -159 0
-754 -162 0
-754 -166 0
-754 170 0
-754 174 0
-754 178 0
-754 182 0
-754 185 0
-754 189 0
-754 -193 0
-754 -197 0
-754 201 0
-754 -204 0
-754 208 0
-754 212 0
-754 -216 0
-754 -220 0
-754 224 0
-754 -227 0
-754 231 0
-754 -235 0
-754 239 0
-754 243 0
-754 -247 0
-754 -250 0
-754 -254 0
-754 258 0
-754 -262 0
-754 266 0
-754 270 0
-754 274 0
-754 -277 0
-754 -281 0
-754 -285 0
-754 289 0
-754 -293 0
-754 297 0
-754 -301 0
-754 -304 0
-754 308 0
-754 312 0
-754 316 0
-754 -319 0
-754 -323 0
-754 327 0
-754 -331 0
-754 335 0
-754 -339 0
-754 342 0
-754 -346 0
-754 350 0
-754 354 0
-754 -358 0
-754 -362 0
-754 -366 0
-754 -369 0
-754 -373 0
-754 377 0
-754 381 0
-754 -384 0
-754 388 0
-754 -392 0
-754 396 0
-754 -400 0
-754 404 0
-754 407 0
-754 -411 0
-754 415 0
-754 -419 0
-754 423 0
-754 -427 0
-755 -23 0
-755 -26 0
-755 -30 0
-755 -34 0
-755 -38 0
-755 -42 0
-755 -46 0
-755 -50 0
-755 -53 0
-755 -57 0
-755 -61 0
-755 -65 0
-755 -69 0
-755 -73 0
-755 -76 0
-755 -80 0
-755 -84 0
-755 -88 0
-755 -92 0
-755 -96 0
-755 -99 0
-755 -103 0
-755 -107 0
-755 -111 0
-755 -114 0
-755 -118 0
-755 -122 0
-755 -125 0
-755 -128 0
-755 -132 0
-755 -136 0
-755 -140 0
-755 -144 0
-755 -147 0
-755 -151 0
-755 -155 0
-755 -159 0
-755 -162 0
-755 -166 0
-755 -170 0
-755 -174 0
-755 -178 0
-755 -182 0
-755 -185 0
-755 -189 0
-755 -193 0
-755 -197 0
-755 -201 0
-755 -204 0
-755 208 0
-755 212 0
-755 -216 0
-755 220 0
-755 -224 0
-755 -227 0
-755 231 0
-755 -235 0
-755 -239 0
-755 243 0
-755 -247 0
-755 -250 0
-755 -254 0
-755 258 0
-755 262 0
-755 -266 0
-755 -270 0
-755 -274 0
-755 -277 0
-755 281 0
-755 -285 0
-755 289 0
-755 293 0
-755 -297 0
-755 -301 0
-755 304 0
-755 -308 0
-755 -312 0
-755 -316 0
-755 -319 0
-755 323 0
-755 327 0
-755 -331 0
-755 -335 0
-755 -339 0
-755 342 0
-755 346 0
-755 -350 0
-755 -354 0
-755 -358 0
-755 -362 0
-755 -366 0
-755 369 0
-755 373 0
-755 377 0
-755 -381 0
-755 -384 0
-755 388 0
-755 -392 0
-755 -396 0
-755 -400 0
-755 -404 0
-755 -407 0
-755 -411 0
-755 415 0
-755 419 0
-755 423 0
-755 -427 0
754 755 0
-756 0
-757 0
-758 0
-759 0
-760 0
-761 0
-762 0
-763 0
